TCS_Benchmarks/redos_fix/snort1_output_distinct_2552_2551_1_0.txt
([^\n\r]*)([^\n\r]*)
([^\n\r]*)([pP][cC])([^\n\r]*)